NAME :  IRP
COMMENT : 
TYPE :  CVRP
DIMENSION : 	7
EDGE_WEIGHT_TYPE : 	EUC_2D
CAPACITY : 	799
NODE_COORD_SECTION
1	113	95
2	332	420
3	332	204
4	423	238
5	363	368
6	81	442
7	188	69
DEMAND_SECTION
1	0
2	110
3	94
4	267
5	117
6	174
7	276
DEPOT_SECTION
	1
	-1
EOF
